
Gurobi 10.0.1 (linux64) logging started Mon 14 Aug 2023 03:13:31 PM CDT

Set parameter LogFile to value "/home/dlcole3/graph_abstraction/plasmoexamples/SHP_serial/SHP_reserve_requirements/gurobi_logs/logfile26.log"
Set parameter NodefileStart to value 0.0005
Set parameter TimeLimit to value 36000
Gurobi Optimizer version 10.0.1 build v10.0.1rc0 (linux64)

CPU model: Intel(R) Xeon(R) CPU E5-2698 v4 @ 2.20GHz, instruction set [SSE2|AVX|AVX2]
Thread count: 40 physical cores, 80 logical processors, using up to 8 threads


Warning: excessive time spent in model updates.
Consider calling update less frequently.

Optimize a model with 1105538 rows, 641709 columns and 4644125 nonzeros
Model fingerprint: 0x583a2d80
Variable types: 599982 continuous, 41727 integer (41727 binary)
Coefficient statistics:
  Matrix range     [5e-02, 2e+04]
  Objective range  [2e-01, 8e+04]
  Bounds range     [5e-02, 2e+04]
  RHS range        [4e-20, 7e+03]
Presolve removed 269177 rows and 115315 columns (presolve time = 5s) ...
Presolve removed 276871 rows and 116188 columns (presolve time = 10s) ...
Presolve removed 278967 rows and 119205 columns (presolve time = 15s) ...
Presolve removed 284704 rows and 123768 columns (presolve time = 20s) ...
Presolve removed 291557 rows and 123949 columns (presolve time = 25s) ...
Presolve removed 292257 rows and 124665 columns (presolve time = 30s) ...
Presolve removed 292297 rows and 124715 columns (presolve time = 35s) ...
Presolve removed 292297 rows and 124715 columns (presolve time = 40s) ...
Presolve removed 292597 rows and 124735 columns (presolve time = 45s) ...
Sparsify removed 201255 nonzeros (5%)
Presolve removed 292597 rows and 122752 columns
Presolve time: 47.60s
Presolved: 812941 rows, 518957 columns, 3978362 nonzeros
Variable types: 485252 continuous, 33705 integer (33638 binary)

Deterministic concurrent LP optimizer: primal simplex, dual simplex, and barrier
Showing barrier log only...

Root barrier log...

Elapsed ordering time = 5s
Elapsed ordering time = 18s
Elapsed ordering time = 21s
Elapsed ordering time = 25s
Elapsed ordering time = 32s
Elapsed ordering time = 35s
Elapsed ordering time = 40s
Elapsed ordering time = 45s
Elapsed ordering time = 46s
Elapsed ordering time = 50s
Elapsed ordering time = 55s
Elapsed ordering time = 59s
Elapsed ordering time = 60s
Elapsed ordering time = 65s
Elapsed ordering time = 70s
Ordering time: 70.62s

Barrier statistics:
 Dense cols : 149
 AA' NZ     : 2.582e+07
 Factor NZ  : 4.007e+08 (roughly 4.0 GB of memory)
 Factor Ops : 2.174e+12 (roughly 18 seconds per iteration)
 Threads    : 5

                  Objective                Residual
Iter       Primal          Dual         Primal    Dual     Compl     Time
   0  -2.26104452e+11 -1.80589252e+13  1.23e+04 8.58e+03  1.16e+08   144s
   1  -1.54711413e+11 -1.27030141e+13  8.92e+03 8.32e+04  7.21e+07   155s
   2  -7.39927430e+10 -7.47086183e+12  4.41e+03 9.62e+03  3.36e+07   172s
   3  -2.22331999e+10 -2.79964489e+12  1.49e+03 3.89e-01  1.04e+07   190s
   4  -3.10978021e+09 -1.32391778e+12  4.24e+02 1.24e-01  3.01e+06   209s
   5   3.41533431e+09 -6.13214298e+11  9.58e+01 4.86e-05  7.83e+05   229s
   6   4.61364767e+09 -2.39212373e+11  3.21e+01 1.10e-05  2.39e+05   248s
   7   4.35299825e+09 -9.40054349e+10  9.52e+00 3.61e-06  7.57e+04   267s
   8   2.22002092e+09 -2.80289229e+10  2.74e+00 1.26e-04  2.03e+04   287s
   9   7.35327197e+08 -4.96373891e+09  8.02e-01 4.36e-05  3.63e+03   308s
  10   1.19620963e+08 -6.58309673e+08  4.96e-02 1.12e-06  4.59e+02   329s
  11   8.51325827e+07 -2.71276299e+08  2.16e-02 4.79e-07  2.09e+02   348s
  12   5.21554060e+07 -5.86920051e+07  1.96e-03 1.37e-07  6.46e+01   370s
  13   4.61353389e+07 -1.12172049e+07  8.88e-04 6.61e-08  3.34e+01   390s
  14   4.08975307e+07  7.90058172e+06  3.64e-04 3.94e-08  1.92e+01   409s
  15   3.69800117e+07  2.11563367e+07  1.08e-04 1.88e-08  9.21e+00   430s
  16   3.48266565e+07  2.96904540e+07  3.45e-05 5.11e-09  2.99e+00   451s
  17   3.39733250e+07  3.17778487e+07  1.60e-05 2.85e-09  1.28e+00   474s
  18   3.38396081e+07  3.22178667e+07  1.36e-05 2.20e-09  9.44e-01   491s
  19   3.35107066e+07  3.25238830e+07  7.77e-06 2.63e-09  5.74e-01   514s
  20   3.33295830e+07  3.27031863e+07  4.64e-06 1.87e-09  3.65e-01   534s
  21   3.32486873e+07  3.27835479e+07  3.26e-06 1.67e-09  2.71e-01   552s
  22   3.31732882e+07  3.28811146e+07  2.02e-06 5.26e-09  1.70e-01   572s
  23   3.31255979e+07  3.29513979e+07  1.25e-06 2.61e-09  1.01e-01   593s
  24   3.31024822e+07  3.29851736e+07  9.00e-07 3.01e-09  6.83e-02   612s
  25   3.30862329e+07  3.30015013e+07  1.24e-06 2.84e-09  4.93e-02   632s
  26   3.30738383e+07  3.30162968e+07  1.50e-06 1.92e-09  3.35e-02   655s
  27   3.30645327e+07  3.30271159e+07  1.44e-06 1.76e-09  2.18e-02   681s
  28   3.30569173e+07  3.30297328e+07  1.47e-06 2.99e-09  1.58e-02   705s
  29   3.30540027e+07  3.30323188e+07  1.36e-06 2.29e-09  1.26e-02   732s
  30   3.30512151e+07  3.30346209e+07  1.14e-06 2.69e-09  9.66e-03   757s
  31   3.30493597e+07  3.30360303e+07  9.19e-07 5.53e-09  7.76e-03   782s
  32   3.30471817e+07  3.30373517e+07  6.78e-07 1.79e-09  5.72e-03   808s
  33   3.30444051e+07  3.30380945e+07  4.90e-07 3.62e-09  3.67e-03   831s
  34   3.30438395e+07  3.30394624e+07  5.74e-07 4.34e-09  2.55e-03   857s
  35   3.30424955e+07  3.30397272e+07  4.40e-07 3.60e-09  1.61e-03   882s
  36   3.30419421e+07  3.30402754e+07  3.30e-07 3.41e-09  9.70e-04   905s
  37   3.30418181e+07  3.30404270e+07  3.11e-07 2.27e-09  8.10e-04   931s
  38   3.30415765e+07  3.30405013e+07  3.11e-07 3.78e-09  6.26e-04   954s
  39   3.30412896e+07  3.30407039e+07  1.78e-07 2.94e-09  3.41e-04   976s
  40   3.30410985e+07  3.30409288e+07  9.43e-08 2.40e-09  9.88e-05   997s
  41   3.30410090e+07  3.30409546e+07  9.01e-08 2.11e-09  3.16e-05  1023s
  42   3.30409842e+07  3.30409583e+07  4.10e-08 2.06e-09  1.51e-05  1046s
  43   3.30409756e+07  3.30409726e+07  1.06e-06 1.99e-09  1.76e-06  1063s
  44   3.30409745e+07  3.30409741e+07  2.23e-07 5.24e-09  2.00e-07  1080s
  45   3.30409744e+07  3.30409744e+07  8.65e-08 2.05e-08  4.57e-10  1099s

Barrier solved model in 45 iterations and 1099.15 seconds (1077.99 work units)
Optimal objective 3.30409744e+07


Root crossover log...

  293820 variables added to crossover basis                     1100s

  348719 DPushes remaining with DInf 1.0902230e-06              1101s
  128489 DPushes remaining with DInf 0.0000000e+00              1106s
   63627 DPushes remaining with DInf 0.0000000e+00              1113s
   47469 DPushes remaining with DInf 0.0000000e+00              1115s
   22118 DPushes remaining with DInf 0.0000000e+00              1121s
   10327 DPushes remaining with DInf 0.0000000e+00              1126s
    4778 DPushes remaining with DInf 0.0000000e+00              1130s
       0 DPushes remaining with DInf 0.0000000e+00              1134s

   10680 PPushes remaining with PInf 0.0000000e+00              1135s
    4537 PPushes remaining with PInf 0.0000000e+00              1135s
       0 PPushes remaining with PInf 0.0000000e+00              1138s

  Push phase complete: Pinf 0.0000000e+00, Dinf 5.1012874e-07   1138s


Root simplex log...

Iteration    Objective       Primal Inf.    Dual Inf.      Time
  163552    3.3040974e+07   0.000000e+00   0.000000e+00   1139s
  163552    3.3040974e+07   0.000000e+00   0.000000e+00   1141s
Waiting for other threads to finish...        1260s
Concurrent spin time: 133.51s (can be avoided by choosing Method=3)

Solved with barrier

Root relaxation: objective 3.304097e+07, 163552 iterations, 1222.64 seconds (1069.10 work units)
Total elapsed time = 1275.02s
Total elapsed time = 1283.88s
Total elapsed time = 1288.62s

    Nodes    |    Current Node    |     Objective Bounds      |     Work
 Expl Unexpl |  Obj  Depth IntInf | Incumbent    BestBd   Gap | It/Node Time

     0     0 3.3041e+07    0  198          - 3.3041e+07      -     - 1297s
H    0     0                    5.732998e+07 3.3041e+07  42.4%     - 1344s
     0     0 3.3041e+07    0  169 5.7330e+07 3.3041e+07  42.4%     - 1424s
     0     2 3.3041e+07    0  168 5.7330e+07 3.3041e+07  42.4%     - 1575s
     1     4 3.3093e+07    1  218 5.7330e+07 3.3041e+07  42.4% 43612 1769s
     3     8 3.3102e+07    2  265 5.7330e+07 3.3084e+07  42.3% 46327 2211s
     7    16 3.3109e+07    3  196 5.7330e+07 3.3102e+07  42.3% 54285 2908s
H   15    24                    4.283551e+07 3.3109e+07  22.7% 44932 3315s
H   16    24                    3.336817e+07 3.3110e+07  0.78% 42343 3315s
H   19    24                    3.319482e+07 3.3110e+07  0.26% 36700 3315s

Cutting planes:
  Implied bound: 17

Explored 23 nodes (952430 simplex iterations) in 3316.05 seconds (5049.31 work units)
Thread count was 8 (of 80 available processors)

Solution count 5: 3.31948e+07 3.31948e+07 3.33682e+07 ... 5.733e+07

Optimal solution found (tolerance 5.00e-02)
Best objective 3.319481867310e+07, best bound 3.310950980031e+07, gap 0.2570%

User-callback calls 1013649, time in user-callback 4.68 sec
